Maximize

x_0_0 + x_0_1 + x_0_2 + x_0_3 + x_0_4 + x_0_5 + x_1_0 + x_1_1 + x_1_2 + x_1_3 + x_1_4 + x_1_5 + x_2_0 + x_2_1 + x_2_2 + x_2_3 + x_2_4 + x_2_5


Subject To

a0: x_0_0 + x_1_0 + x_2_0 <= 1
a1: x_0_1 + x_1_1 + x_2_1 <= 1
a2: x_0_2 + x_1_2 + x_2_2 <= 1
a3: x_0_3 + x_1_3 + x_2_3 <= 1
a4: x_0_4 + x_1_4 + x_2_4 <= 1
a5: x_0_5 + x_1_5 + x_2_5 <= 1
b0: 4 x_0_0 + 2 x_0_1 + 3 x_0_2 + 1 x_0_3 + 6 x_0_4 + 2 x_0_5 <= 3
b1: 4 x_1_0 + 2 x_1_1 + 3 x_1_2 + 1 x_1_3 + 6 x_1_4 + 2 x_1_5 <= 4
b2: 4 x_2_0 + 2 x_2_1 + 3 x_2_2 + 1 x_2_3 + 6 x_2_4 + 2 x_2_5 <= 5
c0: x_0_1 + x_0_0 <= 1
c1: x_1_1 + x_1_0 <= 1
c2: x_2_1 + x_2_0 <= 1
c3: x_0_3 + x_0_0 <= 1
c4: x_1_3 + x_1_0 <= 1
c5: x_2_3 + x_2_0 <= 1
c6: x_0_4 + x_0_0 <= 1
c7: x_1_4 + x_1_0 <= 1
c8: x_2_4 + x_2_0 <= 1
c9: x_0_0 + x_0_1 <= 1
c10: x_1_0 + x_1_1 <= 1
c11: x_2_0 + x_2_1 <= 1
c12: x_0_3 + x_0_1 <= 1
c13: x_1_3 + x_1_1 <= 1
c14: x_2_3 + x_2_1 <= 1
c15: x_0_5 + x_0_1 <= 1
c16: x_1_5 + x_1_1 <= 1
c17: x_2_5 + x_2_1 <= 1
c18: x_0_3 + x_0_2 <= 1
c19: x_1_3 + x_1_2 <= 1
c20: x_2_3 + x_2_2 <= 1
c21: x_0_5 + x_0_2 <= 1
c22: x_1_5 + x_1_2 <= 1
c23: x_2_5 + x_2_2 <= 1
c24: x_0_0 + x_0_3 <= 1
c25: x_1_0 + x_1_3 <= 1
c26: x_2_0 + x_2_3 <= 1
c27: x_0_1 + x_0_3 <= 1
c28: x_1_1 + x_1_3 <= 1
c29: x_2_1 + x_2_3 <= 1
c30: x_0_2 + x_0_3 <= 1
c31: x_1_2 + x_1_3 <= 1
c32: x_2_2 + x_2_3 <= 1
c33: x_0_4 + x_0_3 <= 1
c34: x_1_4 + x_1_3 <= 1
c35: x_2_4 + x_2_3 <= 1
c36: x_0_0 + x_0_4 <= 1
c37: x_1_0 + x_1_4 <= 1
c38: x_2_0 + x_2_4 <= 1
c39: x_0_3 + x_0_4 <= 1
c40: x_1_3 + x_1_4 <= 1
c41: x_2_3 + x_2_4 <= 1
c42: x_0_5 + x_0_4 <= 1
c43: x_1_5 + x_1_4 <= 1
c44: x_2_5 + x_2_4 <= 1
c45: x_0_1 + x_0_5 <= 1
c46: x_1_1 + x_1_5 <= 1
c47: x_2_1 + x_2_5 <= 1
c48: x_0_2 + x_0_5 <= 1
c49: x_1_2 + x_1_5 <= 1
c50: x_2_2 + x_2_5 <= 1
c51: x_0_4 + x_0_5 <= 1
c52: x_1_4 + x_1_5 <= 1
c53: x_2_4 + x_2_5 <= 1




Binary

x_0_0 x_0_1 x_0_2 x_0_3 x_0_4 x_0_5 x_1_0 x_1_1 x_1_2 x_1_3 x_1_4 x_1_5 x_2_0 x_2_1 x_2_2 x_2_3 x_2_4 x_2_5

 


End
